c random clauses
p cnf 20 16
-20 -18 -15 -9 3 6 10 11 0
-20 -18 -14 -11 -4 1 2 16 0
-20 -17 -16 -6 -3 -2 5 14 0
-20 -13 -7 -2 -1 5 12 14 0
-19 -18 -13 -12 -11 1 15 16 0
-19 -18 -11 -6 -4 -3 14 20 0
-19 -11 -10 -9 -6 -5 -2 3 0
-18 -17 -16 -15 -14 -6 -4 8 0
-18 -15 1 2 6 7 9 14 0
-18 -14 -9 -1 4 10 12 13 0
-17 -16 -10 -5 -3 1 12 18 0
-17 -15 -5 -3 6 10 11 14 0
-15 -11 -1 2 3 17 18 20 0
-13 -11 -9 -5 -2 1 4 16 0
-12 -9 -6 -5 3 10 11 15 0
-10 -9 -3 1 4 13 16 18 0
